NAME: random-11-5206
TYPE: TSP
COMMENT: size=11 seed=5206
DIMENSION: 24
EDGE_WEIGHT_TYPE: EUC_2D
NODE_COORD_SECTION
+0 242 746
-0 242 746
+1 449 99
-1 196 370
+2 346 752
-2 228 502
+3 430 839
-3 456 839
+4 744 294
-4 628 563
+5 487 789
-5 352 921
+6 325 477
-6 128 880
+7 341 460
-7 849 860
+8 670 193
-8 556 322
+9 103 455
-9 401 179
+10 160 27
-10 944 329
+11 933 904
-11 632 311
PRECEDENCE_SECTION
+0 -0
+1 -1
+2 -2
+3 -3
+4 -4
+5 -5
+6 -6
+7 -7
+8 -8
+9 -9
+10 -10
+11 -11
EOF
